Version identifier: 12.10.0.0 | 2019-11-26 | 843d4de
CPXPARAM_Read_DataCheck                          1
CPXPARAM_RandomSeed                              201903125
CPXPARAM_TimeLimit                               7200
CPXPARAM_Output_IntSolFilePrefix                 "solucoes/t_sol_ID010M015J015_ZintTrue_minla_fav_ub0/sol"
Lazy constraint(s) or lazy constraint/branch callback is present.
    Disabling dual reductions (CPX_PARAM_REDUCE) in presolve.
    Disabling non-linear reductions (CPX_PARAM_PRELINEAR) in presolve.
    Disabling presolve reductions that prevent crushing forms.
Tried aggregator 1 time.
Reduced MIP has 3375 rows, 1801 columns, and 9900 nonzeros.
Reduced MIP has 1575 binaries, 0 generals, 0 SOSs, and 0 indicators.
Presolve time = 0.00 sec. (2.48 ticks)
Probing time = 0.00 sec. (1.42 ticks)
Tried aggregator 1 time.
Reduced MIP has 3375 rows, 1801 columns, and 9900 nonzeros.
Reduced MIP has 1575 binaries, 0 generals, 0 SOSs, and 0 indicators.
Presolve time = 0.00 sec. (2.26 ticks)
Probing time = 0.00 sec. (1.42 ticks)
Problem contains 47700 lazy constraints.
MIP emphasis: balance optimality and feasibility.
MIP search method: dynamic search.
Parallel mode: deterministic, using up to 8 threads.
Root relaxation solution time = 0.01 sec. (26.72 ticks)

        Nodes                                         Cuts/
   Node  Left     Objective  IInf  Best Integer    Best Bound    ItCnt     Gap

      0     0      963.0000   168                    963.0000      756         
      0     0      970.6721   168                   Cuts: 143      990         
      0     0      981.0053   168                   Cuts: 296     1267         
      0     0      982.9720   168                   Cuts: 205     1435         
      0     0      982.9720   168                   Cuts: 296     1542         
      0     0      982.9720   168                    Cuts: 41     1642         
      0     0      982.9720   168                   Cuts: 346     1791         
*     0+    0                         1688.0000      982.9720            41.77%
New incumbent written to file 'solucoes/t_sol_ID010M015J015_ZintTrue_minla_fav_ub0/sol-00001.sol'.
*     0+    0                         1667.0000      982.9720            41.03%
New incumbent written to file 'solucoes/t_sol_ID010M015J015_ZintTrue_minla_fav_ub0/sol-00002.sol'.
*     0+    0                         1643.0000      982.9720            40.17%
New incumbent written to file 'solucoes/t_sol_ID010M015J015_ZintTrue_minla_fav_ub0/sol-00003.sol'.
      0     0  -1.00000e+75     0     1643.0000      982.9720     1791   40.17%
      0     2      982.9720   137     1643.0000      982.9720     1791   40.17%
Elapsed time = 0.48 sec. (633.45 ticks, tree = 0.02 MB, solutions = 3)
*     7+    5                         1635.0000     1010.0000            38.23%
New incumbent written to file 'solucoes/t_sol_ID010M015J015_ZintTrue_minla_fav_ub0/sol-00004.sol'.
*     7+    4                         1635.0000     1010.0000            38.23%
New incumbent written to file 'solucoes/t_sol_ID010M015J015_ZintTrue_minla_fav_ub0/sol-00005.sol'.
*     8+    6                         1632.0000     1010.0000            38.11%
New incumbent written to file 'solucoes/t_sol_ID010M015J015_ZintTrue_minla_fav_ub0/sol-00006.sol'.
*     9+    7                         1611.0000     1010.0000            37.31%
New incumbent written to file 'solucoes/t_sol_ID010M015J015_ZintTrue_minla_fav_ub0/sol-00007.sol'.
*    10+    7                         1586.0000     1010.0000            36.32%
New incumbent written to file 'solucoes/t_sol_ID010M015J015_ZintTrue_minla_fav_ub0/sol-00008.sol'.
*    26+    6                         1555.0000     1010.0000            35.05%
New incumbent written to file 'solucoes/t_sol_ID010M015J015_ZintTrue_minla_fav_ub0/sol-00009.sol'.
*    27+   21                         1551.0000     1010.0000            34.88%
New incumbent written to file 'solucoes/t_sol_ID010M015J015_ZintTrue_minla_fav_ub0/sol-00010.sol'.
*    32+    1                         1546.0000     1010.0000            34.67%
New incumbent written to file 'solucoes/t_sol_ID010M015J015_ZintTrue_minla_fav_ub0/sol-00011.sol'.
*    39+    1                         1537.0000     1010.0000            34.29%
New incumbent written to file 'solucoes/t_sol_ID010M015J015_ZintTrue_minla_fav_ub0/sol-00012.sol'.
*    41+    1                         1536.0000     1010.0000            34.24%
New incumbent written to file 'solucoes/t_sol_ID010M015J015_ZintTrue_minla_fav_ub0/sol-00013.sol'.
*    48+    4                         1531.0000     1010.0000            34.03%
New incumbent written to file 'solucoes/t_sol_ID010M015J015_ZintTrue_minla_fav_ub0/sol-00014.sol'.
*    55+    1                         1517.0000     1010.0000            33.42%
New incumbent written to file 'solucoes/t_sol_ID010M015J015_ZintTrue_minla_fav_ub0/sol-00015.sol'.
*    63+    1                         1515.0000     1010.0000            33.33%
New incumbent written to file 'solucoes/t_sol_ID010M015J015_ZintTrue_minla_fav_ub0/sol-00016.sol'.
*    87+    1                         1511.0000     1010.0000            33.16%
New incumbent written to file 'solucoes/t_sol_ID010M015J015_ZintTrue_minla_fav_ub0/sol-00017.sol'.
    111    97     1069.0000   105     1511.0000     1010.0000     4601   33.16%
*   116+    1                         1508.0000     1010.0000            33.02%
New incumbent written to file 'solucoes/t_sol_ID010M015J015_ZintTrue_minla_fav_ub0/sol-00018.sol'.
*   121+    1                         1482.0000     1010.0000            31.85%
New incumbent written to file 'solucoes/t_sol_ID010M015J015_ZintTrue_minla_fav_ub0/sol-00019.sol'.
*   161+  150                         1480.0000     1010.0000            31.76%
New incumbent written to file 'solucoes/t_sol_ID010M015J015_ZintTrue_minla_fav_ub0/sol-00020.sol'.
*   219+  180                         1475.0000     1010.0000            31.53%
New incumbent written to file 'solucoes/t_sol_ID010M015J015_ZintTrue_minla_fav_ub0/sol-00021.sol'.
*   232+  190                         1473.0000     1010.0000            31.43%
New incumbent written to file 'solucoes/t_sol_ID010M015J015_ZintTrue_minla_fav_ub0/sol-00022.sol'.
    272   255     1033.3452   118     1473.0000     1010.0000     8721   31.43%
*   291+  233                         1466.0000     1010.0000            31.11%
New incumbent written to file 'solucoes/t_sol_ID010M015J015_ZintTrue_minla_fav_ub0/sol-00023.sol'.
*   306+  258                         1455.0000     1010.0000            30.58%
New incumbent written to file 'solucoes/t_sol_ID010M015J015_ZintTrue_minla_fav_ub0/sol-00024.sol'.
*   364+  322                         1435.0000     1010.0000            29.62%
New incumbent written to file 'solucoes/t_sol_ID010M015J015_ZintTrue_minla_fav_ub0/sol-00025.sol'.
*   479+  372                         1433.0000     1010.0000            29.52%
New incumbent written to file 'solucoes/t_sol_ID010M015J015_ZintTrue_minla_fav_ub0/sol-00026.sol'.
*   561+  456                         1427.0000     1010.0000            29.22%
New incumbent written to file 'solucoes/t_sol_ID010M015J015_ZintTrue_minla_fav_ub0/sol-00027.sol'.
    562   461     1238.0000    53     1427.0000     1010.0000    13870   29.22%
*   580+  456                         1424.0000     1010.0000            29.07%
New incumbent written to file 'solucoes/t_sol_ID010M015J015_ZintTrue_minla_fav_ub0/sol-00028.sol'.
*   681+  567                         1408.0000     1010.0000            28.27%
New incumbent written to file 'solucoes/t_sol_ID010M015J015_ZintTrue_minla_fav_ub0/sol-00029.sol'.
*   717+  600                         1401.0000     1010.0000            27.91%
New incumbent written to file 'solucoes/t_sol_ID010M015J015_ZintTrue_minla_fav_ub0/sol-00030.sol'.
    720   661     1026.0000   120     1401.0000     1010.0000    18492   27.91%
*   761+  700                         1394.0000     1010.0000            27.55%
New incumbent written to file 'solucoes/t_sol_ID010M015J015_ZintTrue_minla_fav_ub0/sol-00031.sol'.
*   932+  819                         1391.0000     1010.0000            27.39%
New incumbent written to file 'solucoes/t_sol_ID010M015J015_ZintTrue_minla_fav_ub0/sol-00032.sol'.
*   991+  829                         1383.0000     1010.0000            26.97%
New incumbent written to file 'solucoes/t_sol_ID010M015J015_ZintTrue_minla_fav_ub0/sol-00033.sol'.
   1041   884     1285.0000    35     1383.0000     1010.0000    23344   26.97%
*  1106+  901                         1381.0000     1010.0000            26.86%
New incumbent written to file 'solucoes/t_sol_ID010M015J015_ZintTrue_minla_fav_ub0/sol-00034.sol'.
*  1168+  959                         1376.0000     1010.0000            26.60%
New incumbent written to file 'solucoes/t_sol_ID010M015J015_ZintTrue_minla_fav_ub0/sol-00035.sol'.
*  1175   989      integral     0     1375.0000     1010.0000    25972   26.55%
New incumbent written to file 'solucoes/t_sol_ID010M015J015_ZintTrue_minla_fav_ub0/sol-00036.sol'.
*  1441+  726                         1374.0000     1010.0000            26.49%
New incumbent written to file 'solucoes/t_sol_ID010M015J015_ZintTrue_minla_fav_ub0/sol-00037.sol'.
   1446  1161     1210.0000    88     1374.0000     1010.0000    30658   26.49%
*  1454+  726                         1373.0000     1010.0000            26.44%
New incumbent written to file 'solucoes/t_sol_ID010M015J015_ZintTrue_minla_fav_ub0/sol-00038.sol'.
*  1756+  726                         1365.0000     1010.0000            26.01%
New incumbent written to file 'solucoes/t_sol_ID010M015J015_ZintTrue_minla_fav_ub0/sol-00039.sol'.
*  1827+  726                         1364.0000     1010.0000            25.95%
New incumbent written to file 'solucoes/t_sol_ID010M015J015_ZintTrue_minla_fav_ub0/sol-00040.sol'.
   1827   516     1092.0000    91     1364.0000     1010.0000    15374   25.95%
*  1828+  726                         1361.0000     1010.0000            25.79%
New incumbent written to file 'solucoes/t_sol_ID010M015J015_ZintTrue_minla_fav_ub0/sol-00041.sol'.
*  1828+  726                         1355.0000     1010.0000            25.46%
New incumbent written to file 'solucoes/t_sol_ID010M015J015_ZintTrue_minla_fav_ub0/sol-00042.sol'.
*  1828+  726                         1353.0000     1010.0000            25.35%
New incumbent written to file 'solucoes/t_sol_ID010M015J015_ZintTrue_minla_fav_ub0/sol-00043.sol'.
*  1828+  726                         1345.0000     1010.0000            24.91%
New incumbent written to file 'solucoes/t_sol_ID010M015J015_ZintTrue_minla_fav_ub0/sol-00044.sol'.
*  1828+  726                         1341.0000     1010.0000            24.68%
New incumbent written to file 'solucoes/t_sol_ID010M015J015_ZintTrue_minla_fav_ub0/sol-00045.sol'.
*  1828+  726                         1336.0000     1010.0000            24.40%
New incumbent written to file 'solucoes/t_sol_ID010M015J015_ZintTrue_minla_fav_ub0/sol-00046.sol'.
*  1828+  726                         1335.0000     1010.0000            24.34%
New incumbent written to file 'solucoes/t_sol_ID010M015J015_ZintTrue_minla_fav_ub0/sol-00047.sol'.
*  1828+  726                         1331.0000     1010.0000            24.12%
New incumbent written to file 'solucoes/t_sol_ID010M015J015_ZintTrue_minla_fav_ub0/sol-00048.sol'.
*  1828+  726                         1326.0000     1010.0000            23.83%
New incumbent written to file 'solucoes/t_sol_ID010M015J015_ZintTrue_minla_fav_ub0/sol-00049.sol'.
*  1828+  726                         1324.0000     1010.0000            23.72%
New incumbent written to file 'solucoes/t_sol_ID010M015J015_ZintTrue_minla_fav_ub0/sol-00050.sol'.
   1828   728     1099.0000   108     1324.0000     1010.0000    20737   23.72%

Performing restart 1

Repeating presolve.
Tried aggregator 1 time.
MIP Presolve eliminated 23 rows and 21 columns.
MIP Presolve modified 4662 coefficients.
Reduced MIP has 3352 rows, 1780 columns, and 9812 nonzeros.
Reduced MIP has 1554 binaries, 0 generals, 0 SOSs, and 0 indicators.
Presolve time = 0.00 sec. (3.38 ticks)
Tried aggregator 1 time.
Reduced MIP has 3352 rows, 1780 columns, and 9812 nonzeros.
Reduced MIP has 1554 binaries, 0 generals, 0 SOSs, and 0 indicators.
Presolve time = 0.00 sec. (3.06 ticks)
Represolve time = 0.04 sec. (50.02 ticks)
Problem contains 47700 lazy constraints.
   1829     0      994.4533   175     1324.0000     Cuts: 938    44018   23.72%
   1829     0      995.3106   175     1324.0000     Cuts: 938    44657   23.72%
   1829     0     1000.9009   175     1324.0000     Cuts: 938    44987   23.72%
*  1829+    0                         1323.0000     1010.0000            23.66%
New incumbent written to file 'solucoes/t_sol_ID010M015J015_ZintTrue_minla_fav_ub0/sol-00051.sol'.
*  1829+    0                         1321.0000     1010.0000            23.54%
New incumbent written to file 'solucoes/t_sol_ID010M015J015_ZintTrue_minla_fav_ub0/sol-00052.sol'.
*  1829+    0                         1314.0000     1010.0000            23.14%
New incumbent written to file 'solucoes/t_sol_ID010M015J015_ZintTrue_minla_fav_ub0/sol-00053.sol'.
*  1829+    0                         1311.0000     1010.0000            22.96%
New incumbent written to file 'solucoes/t_sol_ID010M015J015_ZintTrue_minla_fav_ub0/sol-00054.sol'.
*  1829+    0                         1307.0000     1010.0000            22.72%
New incumbent written to file 'solucoes/t_sol_ID010M015J015_ZintTrue_minla_fav_ub0/sol-00055.sol'.
   1829     0  -1.00000e+75     0     1307.0000     1010.0000    44987   22.72%
   1829     0     1007.2526   175     1307.0000     Cuts: 645    45208   22.72%
   1829     0     1007.2526   175     1307.0000     Cuts: 277    45368   22.72%
   1829     0     1008.3086   175     1307.0000     Cuts: 147    45540   22.72%
   1829     0     1008.3086   175     1307.0000     Cuts: 658    45727   22.72%
   1829     0     1008.3086   175     1307.0000     Cuts: 143    45852   22.72%
   1829     0     1008.3086   175     1307.0000     Cuts: 839    46038   22.72%
*  1829+    0                         1306.0000     1010.0000            22.66%
New incumbent written to file 'solucoes/t_sol_ID010M015J015_ZintTrue_minla_fav_ub0/sol-00056.sol'.
*  1829+    0                         1303.0000     1010.0000            22.49%
New incumbent written to file 'solucoes/t_sol_ID010M015J015_ZintTrue_minla_fav_ub0/sol-00057.sol'.
   1829     2     1008.3086   100     1303.0000     1010.0000    46038   22.49%
*  1835+    1                         1298.0000     1011.8000            22.05%
New incumbent written to file 'solucoes/t_sol_ID010M015J015_ZintTrue_minla_fav_ub0/sol-00058.sol'.
   2443   382     1198.0000   110     1298.0000     1028.0000    61488   20.80%
Elapsed time = 5.90 sec. (6501.91 ticks, tree = 0.57 MB, solutions = 140)
*  3474+ 1086                         1296.0000     1028.0000            20.68%
New incumbent written to file 'solucoes/t_sol_ID010M015J015_ZintTrue_minla_fav_ub0/sol-00059.sol'.
*  3624  1291      integral     0     1295.0000     1028.0000    91933   20.62%
New incumbent written to file 'solucoes/t_sol_ID010M015J015_ZintTrue_minla_fav_ub0/sol-00060.sol'.
   3705  1347     1279.0000    59     1295.0000     1028.0000    94250   20.62%
*  4250+ 1845                         1294.0000     1028.0000            20.56%
New incumbent written to file 'solucoes/t_sol_ID010M015J015_ZintTrue_minla_fav_ub0/sol-00061.sol'.
*  4622+ 1880                         1289.0000     1055.0000            18.15%
New incumbent written to file 'solucoes/t_sol_ID010M015J015_ZintTrue_minla_fav_ub0/sol-00062.sol'.
*  4691+ 1889                         1287.0000     1055.0000            18.03%
New incumbent written to file 'solucoes/t_sol_ID010M015J015_ZintTrue_minla_fav_ub0/sol-00063.sol'.
*  4705+ 1889                         1286.0000     1055.0000            17.96%
New incumbent written to file 'solucoes/t_sol_ID010M015J015_ZintTrue_minla_fav_ub0/sol-00064.sol'.
*  4736+ 1826                         1282.0000     1055.0000            17.71%
New incumbent written to file 'solucoes/t_sol_ID010M015J015_ZintTrue_minla_fav_ub0/sol-00065.sol'.
*  4763+ 1826                         1278.0000     1055.0000            17.45%
New incumbent written to file 'solucoes/t_sol_ID010M015J015_ZintTrue_minla_fav_ub0/sol-00066.sol'.
*  4806+ 1826                         1277.0000     1055.0000            17.38%
New incumbent written to file 'solucoes/t_sol_ID010M015J015_ZintTrue_minla_fav_ub0/sol-00067.sol'.
*  4889+ 1880                         1276.0000     1055.0000            17.32%
New incumbent written to file 'solucoes/t_sol_ID010M015J015_ZintTrue_minla_fav_ub0/sol-00068.sol'.
*  4906+ 1825                         1274.0000     1055.0000            17.19%
New incumbent written to file 'solucoes/t_sol_ID010M015J015_ZintTrue_minla_fav_ub0/sol-00069.sol'.
*  4920+ 1825                         1273.0000     1055.0000            17.12%
New incumbent written to file 'solucoes/t_sol_ID010M015J015_ZintTrue_minla_fav_ub0/sol-00070.sol'.
*  4938+ 1825                         1271.0000     1055.0000            16.99%
New incumbent written to file 'solucoes/t_sol_ID010M015J015_ZintTrue_minla_fav_ub0/sol-00071.sol'.
*  5075+ 1880                         1269.0000     1058.0000            16.63%
New incumbent written to file 'solucoes/t_sol_ID010M015J015_ZintTrue_minla_fav_ub0/sol-00072.sol'.
*  5085+ 1880                         1258.0000     1058.0000            15.90%
New incumbent written to file 'solucoes/t_sol_ID010M015J015_ZintTrue_minla_fav_ub0/sol-00073.sol'.
*  5096+ 1880                         1255.0000     1058.0000            15.70%
New incumbent written to file 'solucoes/t_sol_ID010M015J015_ZintTrue_minla_fav_ub0/sol-00074.sol'.
*  5122+ 1880                         1254.0000     1058.0000            15.63%
New incumbent written to file 'solucoes/t_sol_ID010M015J015_ZintTrue_minla_fav_ub0/sol-00075.sol'.
*  5127+ 1880                         1253.0000     1058.0000            15.56%
New incumbent written to file 'solucoes/t_sol_ID010M015J015_ZintTrue_minla_fav_ub0/sol-00076.sol'.
*  5127+ 1880                         1252.0000     1058.0000            15.50%
New incumbent written to file 'solucoes/t_sol_ID010M015J015_ZintTrue_minla_fav_ub0/sol-00077.sol'.
*  5134+ 1880                         1251.0000     1058.0000            15.43%
New incumbent written to file 'solucoes/t_sol_ID010M015J015_ZintTrue_minla_fav_ub0/sol-00078.sol'.
*  5135+ 1880                         1250.0000     1058.0000            15.36%
New incumbent written to file 'solucoes/t_sol_ID010M015J015_ZintTrue_minla_fav_ub0/sol-00079.sol'.
   5140  2574     1120.0244   114     1250.0000     1058.0000   134600   15.36%
*  5150+ 1880                         1248.0000     1058.0000            15.22%
New incumbent written to file 'solucoes/t_sol_ID010M015J015_ZintTrue_minla_fav_ub0/sol-00080.sol'.
*  5159+ 1880                         1246.0000     1058.0000            15.09%
New incumbent written to file 'solucoes/t_sol_ID010M015J015_ZintTrue_minla_fav_ub0/sol-00081.sol'.
*  5515+ 2587                         1235.0000     1064.0000            13.85%
New incumbent written to file 'solucoes/t_sol_ID010M015J015_ZintTrue_minla_fav_ub0/sol-00082.sol'.
*  5559+ 2587                         1233.0000     1064.0000            13.71%
New incumbent written to file 'solucoes/t_sol_ID010M015J015_ZintTrue_minla_fav_ub0/sol-00083.sol'.
*  5847+ 2587                         1232.0000     1064.0000            13.64%
New incumbent written to file 'solucoes/t_sol_ID010M015J015_ZintTrue_minla_fav_ub0/sol-00084.sol'.
*  6044+ 2587                         1231.0000     1064.0000            13.57%
New incumbent written to file 'solucoes/t_sol_ID010M015J015_ZintTrue_minla_fav_ub0/sol-00085.sol'.
   6064  2575     1133.0000   119     1231.0000     1064.0000   168586   13.57%
*  6153+ 2587                         1230.0000     1064.0000            13.50%
New incumbent written to file 'solucoes/t_sol_ID010M015J015_ZintTrue_minla_fav_ub0/sol-00086.sol'.
*  6178+ 2586                         1221.0000     1064.0000            12.86%
New incumbent written to file 'solucoes/t_sol_ID010M015J015_ZintTrue_minla_fav_ub0/sol-00087.sol'.
*  6194+ 2586                         1217.0000     1064.0000            12.57%
New incumbent written to file 'solucoes/t_sol_ID010M015J015_ZintTrue_minla_fav_ub0/sol-00088.sol'.
*  6232+ 2586                         1215.0000     1067.0000            12.18%
New incumbent written to file 'solucoes/t_sol_ID010M015J015_ZintTrue_minla_fav_ub0/sol-00089.sol'.
*  6238+ 2586                         1212.0000     1067.0000            11.96%
New incumbent written to file 'solucoes/t_sol_ID010M015J015_ZintTrue_minla_fav_ub0/sol-00090.sol'.
   6533  2083     1145.0000    80     1212.0000     1073.0000   205350   11.47%
   7167  2366     1093.0000    96     1212.0000     1087.0000   238867   10.31%
   8162  2673     1160.0000    63     1212.0000     1092.0000   280836    9.90%
*  8855+ 3263                         1211.0000     1092.2988             9.80%
New incumbent written to file 'solucoes/t_sol_ID010M015J015_ZintTrue_minla_fav_ub0/sol-00091.sol'.
*  8875+ 3269                         1210.0000     1092.2988             9.73%
New incumbent written to file 'solucoes/t_sol_ID010M015J015_ZintTrue_minla_fav_ub0/sol-00092.sol'.
*  8886  3255      integral     0     1208.0000     1092.2988   311085    9.58%
New incumbent written to file 'solucoes/t_sol_ID010M015J015_ZintTrue_minla_fav_ub0/sol-00093.sol'.
   9327  3235     1126.0000    80     1208.0000     1092.2988   316221    9.58%
*  9839+ 3355                         1207.0000     1097.0000             9.11%
New incumbent written to file 'solucoes/t_sol_ID010M015J015_ZintTrue_minla_fav_ub0/sol-00094.sol'.
* 10162+ 3821                         1206.0000     1099.0000             8.87%
New incumbent written to file 'solucoes/t_sol_ID010M015J015_ZintTrue_minla_fav_ub0/sol-00095.sol'.
* 10242+ 3794                         1202.0000     1099.0000             8.57%
New incumbent written to file 'solucoes/t_sol_ID010M015J015_ZintTrue_minla_fav_ub0/sol-00096.sol'.
  10318  3706     1103.6545    93     1202.0000     1099.0000   362513    8.57%
* 11268+ 3887                         1198.0000     1102.0000             8.01%
New incumbent written to file 'solucoes/t_sol_ID010M015J015_ZintTrue_minla_fav_ub0/sol-00097.sol'.
* 11458  4008      integral     0     1197.0000     1103.6545   392732    7.80%
New incumbent written to file 'solucoes/t_sol_ID010M015J015_ZintTrue_minla_fav_ub0/sol-00098.sol'.
  11530  4102     1156.0000    73     1197.0000     1104.0000   406292    7.77%
* 12543+ 4146                         1195.0000     1106.0000             7.45%
New incumbent written to file 'solucoes/t_sol_ID010M015J015_ZintTrue_minla_fav_ub0/sol-00099.sol'.
* 12548+ 4146                         1194.0000     1106.0000             7.37%
New incumbent written to file 'solucoes/t_sol_ID010M015J015_ZintTrue_minla_fav_ub0/sol-00100.sol'.
* 12638+ 4400                         1194.0000     1106.0000             7.37%
New incumbent written to file 'solucoes/t_sol_ID010M015J015_ZintTrue_minla_fav_ub0/sol-00101.sol'.
  12787  4157        cutoff           1194.0000     1106.0000   453071    7.37%
Elapsed time = 20.44 sec. (16047.58 ticks, tree = 5.15 MB, solutions = 228)
  13833  4125     1175.0000    50     1194.0000     1117.0000   529903    6.45%
* 14593+ 4395                         1193.0000     1120.0000             6.12%
New incumbent written to file 'solucoes/t_sol_ID010M015J015_ZintTrue_minla_fav_ub0/sol-00102.sol'.
  14677  4252    infeasible           1193.0000     1121.0000   585952    6.04%
  15989  4472    infeasible           1193.0000     1126.0000   635604    5.62%
  17933  4450     1156.0000    72     1193.0000     1130.5113   684891    5.24%
  18680  4790        cutoff           1193.0000     1133.0000   741420    5.03%
  21069  5391     1172.0000    38     1193.0000     1137.0000   832378    4.69%
* 21094  5306      integral     0     1191.0000     1137.0000   823139    4.53%
New incumbent written to file 'solucoes/t_sol_ID010M015J015_ZintTrue_minla_fav_ub0/sol-00103.sol'.
* 21213  5201      integral     0     1189.0000     1138.0000   843139    4.29%
New incumbent written to file 'solucoes/t_sol_ID010M015J015_ZintTrue_minla_fav_ub0/sol-00104.sol'.
* 21355  5029      integral     0     1188.0000     1138.0000   851917    4.21%
New incumbent written to file 'solucoes/t_sol_ID010M015J015_ZintTrue_minla_fav_ub0/sol-00105.sol'.
  21747  4880     1183.0000    45     1188.0000     1139.0000   878322    4.12%
* 22016  4748      integral     0     1185.0000     1140.0000   900250    3.80%
New incumbent written to file 'solucoes/t_sol_ID010M015J015_ZintTrue_minla_fav_ub0/sol-00106.sol'.
* 22739+ 4467                         1182.0000     1142.0000             3.38%
New incumbent written to file 'solucoes/t_sol_ID010M015J015_ZintTrue_minla_fav_ub0/sol-00107.sol'.
* 22744+ 4467                         1181.0000     1142.0000             3.30%
New incumbent written to file 'solucoes/t_sol_ID010M015J015_ZintTrue_minla_fav_ub0/sol-00108.sol'.
  24287  2669    infeasible           1181.0000     1156.0000   976737    2.12%

Cover cuts applied:  10
Implied bound cuts applied:  65
Flow cuts applied:  46
Mixed integer rounding cuts applied:  232
Lift and project cuts applied:  2
Gomory fractional cuts applied:  31

Root node processing (before b&c):
  Real time             =    0.42 sec. (634.53 ticks)
Parallel b&c, 8 threads:
  Real time             =   33.04 sec. (23361.21 ticks)
  Sync time (average)   =    5.39 sec.
  Wait time (average)   =    0.12 sec.
                          ------------
Total (root+branch&cut) =   33.47 sec. (23995.74 ticks)
